p tw 42 168
1 2
1 3
1 4
1 5
2 1
2 3
2 6
2 7
3 1
3 2
3 8
3 9
4 1
4 5
4 16
4 25
5 1
5 4
5 12
5 16
6 2
6 7
6 21
6 31
7 2
7 6
7 11
7 15
8 3
8 9
8 20
8 36
9 3
9 8
9 41
9 42
10 11
10 12
10 13
10 14
11 7
11 10
11 12
11 15
12 5
12 10
12 11
12 16
13 10
13 14
13 22
13 35
14 10
14 13
14 34
14 35
15 7
15 11
15 17
15 20
16 4
16 5
16 12
16 25
17 15
17 18
17 19
17 20
18 17
18 19
18 21
18 22
19 17
19 18
19 23
19 24
20 8
20 15
20 17
20 36
21 6
21 18
21 22
21 31
22 13
22 18
22 21
22 35
23 19
23 24
23 38
23 39
24 19
24 23
24 25
24 29
25 4
25 16
25 24
25 29
26 27
26 28
26 29
26 30
27 26
27 28
27 31
27 32
28 26
28 27
28 33
28 34
29 24
29 25
29 26
29 30
30 26
30 29
30 37
30 38
31 6
31 21
31 27
31 32
32 27
32 31
32 40
32 42
33 28
33 34
33 36
33 37
34 14
34 28
34 33
34 35
35 13
35 14
35 22
35 34
36 8
36 20
36 33
36 37
37 30
37 33
37 36
37 38
38 23
38 30
38 37
38 39
39 23
39 38
39 40
39 41
40 32
40 39
40 41
40 42
41 9
41 39
41 40
41 42
42 9
42 32
42 40
42 41
